//Dat File

outFile="MPVSBPP_SET1_IT200_ITV1_NT1_TS3_WT1_VT1_REP2";
m=200;
o=34;
p=3;
numVTypes=1;

demand = [11, 11, 9, 10, 10, 3, 9, 7, 2, 8, 7, 11, 2, 2, 9, 9, 2, 9, 2, 8, 5, 2, 5, 6, 5, 11, 7, 3, 6, 10, 7, 2, 6, 8, 2, 10, 11, 2, 1, 11, 2, 7, 5, 4, 1, 10, 5, 7, 8, 5, 11, 8, 11, 5, 4, 6, 8, 8, 3, 7, 9, 8, 11, 1, 5, 8, 4, 11, 4, 3, 6, 7, 1, 5, 8, 1, 3, 3, 3, 4, 6, 4, 8, 4, 3, 1, 9, 6, 9, 4, 7, 7, 2, 7, 1, 8, 6, 2, 5, 5, 9, 3, 9, 3, 9, 10, 10, 8, 5, 6, 5, 1, 4, 5, 11, 3, 2, 2, 9, 7, 4, 11, 10, 6, 9, 4, 2, 9, 9, 8, 5, 2, 11, 10, 11, 11, 6, 6, 5, 1, 10, 4, 11, 11, 8, 11, 1, 11, 8, 11, 15, 15, 19, 15, 19, 12, 17, 14, 13, 12, 12, 16, 13, 14, 16, 14, 16, 19, 15, 17, 18, 15, 14, 18, 16, 17, 19, 12, 19, 19, 14, 16, 18, 14, 18, 16, 18, 18, 12, 14, 13, 18, 17, 17, 19, 18, 17, 15, 13, 16];
Depot_Cap = [30000, 30000, 30000];
Tarif = [10, 3, 7];
VeicVolume = [100];
VeicCost = [100];
VeicType = [1, 1, 1, 1, 1, 1, 1, 1, 1, 1, 1, 1, 1, 1, 1, 1, 1, 1, 1, 1, 1, 1, 1, 1, 1, 1, 1, 1, 1, 1, 1, 1, 1, 1];
Elect_vehicle = [[70, 100, 30], [70, 100, 30], [70, 100, 30], [70, 100, 30], [70, 100, 30], [70, 100, 30], [70, 100, 30], [70, 100, 30], [70, 100, 30], [70, 100, 30], [70, 100, 30], [70, 100, 30], [70, 100, 30], [70, 100, 30], [70, 100, 30], [70, 100, 30], [70, 100, 30], [70, 100, 30], [70, 100, 30], [70, 100, 30], [70, 100, 30], [70, 100, 30], [70, 100, 30], [70, 100, 30], [70, 100, 30], [70, 100, 30], [70, 100, 30], [70, 100, 30], [70, 100, 30], [70, 100, 30], [70, 100, 30], [70, 100, 30], [70, 100, 30], [70, 100, 30]];